treewidth/heuristics/demo/he001.gr
p tw 7 9
1 2
1 4
1 5
1 6
2 3
2 7
3 7
4 5
4 6
