treewidth/heuristics/demo/he001.gr.log
c min degree heuristic
c status 3 1734230021316
c min shortcut heuristic
c run with 0.0/0.1/0.2 min balance and node_min_expansion in endless loop with varying seed
s td 4 3 7
b 1 3 7 2
b 2 2 1
b 3 5 1 4
b 4 6 1 4
1 2
2 4
4 3
